************************************************************************
file with basedata            : mm32_.bas
initial value random generator: 421287394
************************************************************************
projects                      :  1
jobs (incl. supersource/sink ):  12
horizon                       :  71
RESOURCES
  - renewable                 :  2   R
  - nonrenewable              :  2   N
  - doubly constrained        :  0   D
************************************************************************
PROJECT INFORMATION:
pronr.  #jobs rel.date duedate tardcost  MPM-Time
    1     10      0       11        0       11
************************************************************************
PRECEDENCE RELATIONS:
jobnr.    #modes  #successors   successors
   1        1          3           2   3   4
   2        3          1           5
   3        3          1           8
   4        3          2           7  10
   5        3          3           6   8   9
   6        3          2          10  11
   7        3          2           9  11
   8        3          1          11
   9        3          1          12
  10        3          1          12
  11        3          1          12
  12        1          0        
************************************************************************
REQUESTS/DURATIONS:
jobnr. mode duration  R 1  R 2  N 1  N 2
------------------------------------------------------------------------
  1      1     0       0    0    0    0
  2      1     4       9    0    4    8
         2     5       0    7    3    5
         3     6       0    4    3    4
  3      1     2       0    7    4    8
         2     4       0    7    2    6
         3     8       7    0    1    5
  4      1     1       9    0    7    6
         2     1       0    3   10    6
         3     9       0    2    4    6
  5      1     1       0    6    7   10
         2     3       3    0    7    6
         3     3       0    3    6    7
  6      1     2       0    7    6    2
         2     2       5    0    5    2
         3     6       3    0    5    2
  7      1     3       6    0    7   10
         2     6       6    0    6    9
         3    10       0    3    6    6
  8      1     3       0    6    9    8
         2     8       3    0    4    6
         3     9       0    6    3    5
  9      1     5       9    0    4    7
         2     7       4    0    4    6
         3     8       4    0    2    5
 10      1     4       9    0    8    7
         2     6       8    0    7    6
         3     6       0    7    8    6
 11      1     3       8    0    6    9
         2     5       8    0    6    8
         3     6       0    2    5    6
 12      1     0       0    0    0    0
************************************************************************
RESOURCEAVAILABILITIES:
  R 1  R 2  N 1  N 2
   25   17   65   75
************************************************************************
